language Essence 1.3

letting bot_end be [739, 199, 179, 490, 189, 1, 725, 369, 554, 62, 178, 129, 120, 164, 244, 141, 45, 718; int(1..18)]
letting bot_start be
        [210, 542, 506, 26, 766, 317, 394, 669, 17, 436, 473, 410, 599, 756, 602, 525, 416, 152; int(1..18)]
letting buffer_col be 2
letting buffer_row be 2
letting corridor_size be 1
letting n_shelves_col be 4
letting n_shelves_row be 22
letting shelf_col_size be 2
letting shelf_row_size be 1
